(set-option :print-success false)
(set-logic QF_UF)
(declare-sort x145 0)
(declare-sort x27 0)
(declare-fun x52 () x27)
(declare-fun x128 (x27 x27) x27)
(declare-fun x87 () x27)
(declare-fun x9 (x27 x27) x27)
(declare-fun x154 () x27)
(declare-fun x112 () x27)
(declare-fun x124 () x27)
(assert (not (and (= (x9 x52 x52) x124) (and (and (and (= x87 (x9 x52 x112)) (and (and (and (= (x9 x154 x154) x87) (and (= x154 (x9 x154 x87)) (and (= (x9 x154 x112) x124) (and (= (x9 x154 x124) x52) (and (and (and (= (x9 x87 x87) x124) (and (and (and (and (and (= (x9 x112 x87) x112) (and (= (x9 x112 x112) x154) (and (and (and (= x52 (x9 x124 x154)) (and (and (= x112 (x9 x124 x112)) (= x124 (x9 x124 x124))) (= x87 (x9 x124 x87)))) (= (x9 x124 x52) x154)) (= x87 (x9 x112 x124))))) (= (x9 x112 x154) x124)) (= (x9 x112 x52) x52)) (= x112 (x9 x87 x124))) (= (x9 x87 x112) x52))) (= (x9 x87 x154) x154)) (= (x9 x87 x52) x87)))))) (= (x9 x154 x52) x112)) (= (x9 x52 x124) x154))) (= x52 (x9 x52 x87))) (= x112 (x9 x52 x154))))))
(assert (let ((x35 (x9 x112 x112)) (x111 (x9 x124 x52)) (x79 (x9 x154 x154)) (x95 (x9 x124 x124)) (x16 (x9 x124 x112)) (x69 (x9 x154 x87)) (x150 (x9 x112 x87)) (x130 (x9 x52 x112)) (x151 (x9 x154 x52)) (x116 (x9 x87 x154)) (x105 (x9 x52 x87)) (x14 (x9 x124 x87)) (x83 (x9 x112 x154)) (x59 (x9 x154 x112)) (x144 (x9 x87 x87)) (x50 (x9 x112 x52)) (x85 (x9 x87 x124)) (x88 (x9 x112 x124)) (x123 (x9 x154 x124)) (x76 (x9 x87 x52)) (x54 (x9 x52 x154)) (x34 (x9 x52 x52)) (x133 (x9 x124 x154)) (x156 (x9 x87 x112)) (x97 (x9 x52 x124))) (or (and (and (and (not (= x87 (x9 x105 x105))) (and (not (= (x9 x130 x130) x112)) (not (= (x9 x97 x97) x124)))) (not (= (x9 x54 x54) x154))) (not (= x52 (x9 x34 x34)))) (or (or (and (and (and (and (not (= (x9 x85 x85) x124)) (not (= x112 (x9 x156 x156)))) (not (= (x9 x144 x144) x87))) (not (= (x9 x116 x116) x154))) (not (= (x9 x76 x76) x52))) (or (and (not (= (x9 x50 x50) x52)) (and (and (not (= (x9 x150 x150) x87)) (and (not (= x112 (x9 x35 x35))) (not (= (x9 x88 x88) x124)))) (not (= x154 (x9 x83 x83))))) (and (and (not (= x154 (x9 x133 x133))) (and (and (not (= (x9 x95 x95) x124)) (not (= (x9 x16 x16) x112))) (not (= (x9 x14 x14) x87)))) (not (= x52 (x9 x111 x111)))))) (and (and (and (not (= x87 (x9 x69 x69))) (and (not (= (x9 x59 x59) x112)) (not (= (x9 x123 x123) x124)))) (not (= (x9 x79 x79) x154))) (not (= x52 (x9 x151 x151))))))))
(assert (let ((x83 (x9 x87 x87)) (x156 (x9 x154 x112)) (x123 (x9 x154 x154)) (x14 (x9 x124 x112)) (x144 (x9 x112 x154)) (x76 (x9 x87 x154)) (x88 (x9 x124 x87)) (x59 (x9 x52 x124)) (x54 (x9 x154 x52)) (x16 (x9 x112 x124)) (x50 (x9 x154 x124)) (x133 (x9 x112 x112)) (x34 (x9 x52 x52)) (x95 (x9 x124 x124)) (x85 (x9 x124 x154)) (x79 (x9 x52 x112)) (x151 (x9 x112 x52)) (x97 (x9 x52 x87)) (x69 (x9 x124 x52)) (x116 (x9 x154 x87)) (x111 (x9 x87 x124)) (x105 (x9 x52 x154)) (x130 (x9 x87 x52)) (x35 (x9 x87 x112)) (x150 (x9 x112 x87))) (or (or (or (or (and (and (and (= x150 x35) (and (= x133 x133) (= x14 x16))) (= x144 x156)) (= x79 x151)) (and (and (and (and (= x16 x14) (= x95 x95)) (= x111 x88)) (= x85 x50)) (= x69 x59))) (and (and (= x116 x76) (and (= x83 x83) (and (= x111 x88) (= x150 x35)))) (= x130 x97))) (and (and (and (and (= x85 x50) (= x156 x144)) (= x76 x116)) (= x123 x123)) (= x105 x54))) (and (and (= x54 x105) (and (= x97 x130) (and (= x59 x69) (= x151 x79)))) (= x34 x34)))))
(assert (and (= (x9 x52 x124) x154) (and (and (= x124 (x9 x52 x52)) (= (x9 x52 x154) x112)) (= (x9 x112 x124) x87))))
(assert (or (or (or (= (x9 x87 x87) x87) (or (= x112 (x9 x112 x112)) (= x124 (x9 x124 x124)))) (= x154 (x9 x154 x154))) (= (x9 x52 x52) x52)))
(assert (or (or (and (and (not (= x154 (x9 (x9 x154 x154) x154))) (and (not (= (x9 (x9 x154 x87) x154) x87)) (and (not (= x112 (x9 (x9 x154 x112) x154))) (not (= x124 (x9 (x9 x154 x124) x154)))))) (not (= (x9 (x9 x154 x52) x154) x52))) (or (and (not (= x52 (x9 (x9 x87 x52) x87))) (and (not (= (x9 (x9 x87 x154) x87) x154)) (and (not (= (x9 (x9 x87 x87) x87) x87)) (and (not (= x112 (x9 (x9 x87 x112) x87))) (not (= (x9 (x9 x87 x124) x87) x124)))))) (or (and (and (and (not (= (x9 (x9 x112 x87) x112) x87)) (and (not (= x124 (x9 (x9 x112 x124) x112))) (not (= (x9 (x9 x112 x112) x112) x112)))) (not (= (x9 (x9 x112 x154) x112) x154))) (not (= (x9 (x9 x112 x52) x112) x52))) (and (not (= x52 (x9 (x9 x124 x52) x124))) (and (and (and (not (= (x9 (x9 x124 x112) x124) x112)) (not (= (x9 (x9 x124 x124) x124) x124))) (not (= x87 (x9 (x9 x124 x87) x124)))) (not (= x154 (x9 (x9 x124 x154) x124)))))))) (and (and (not (= (x9 (x9 x52 x154) x52) x154)) (and (not (= (x9 (x9 x52 x87) x52) x87)) (and (not (= (x9 (x9 x52 x112) x52) x112)) (not (= x124 (x9 (x9 x52 x124) x52)))))) (not (= (x9 (x9 x52 x52) x52) x52)))))
(assert (not (and (= x124 (x9 x52 x52)) (and (= (x9 x52 x154) x112) (and (= (x9 x52 x87) x87) (and (= (x9 x52 x112) x52) (and (= x154 (x9 x52 x124)) (and (= (x9 x154 x52) x154) (and (= x87 (x9 x154 x154)) (and (and (= (x9 x154 x112) x112) (and (= (x9 x154 x124) x52) (and (and (= x124 (x9 x87 x154)) (and (= (x9 x87 x87) x52) (and (and (and (and (and (= x154 (x9 x112 x87)) (and (and (= x87 (x9 x112 x124)) (and (= x52 (x9 x124 x52)) (and (and (= x112 (x9 x124 x87)) (and (= x87 (x9 x124 x112)) (= (x9 x124 x124) x124))) (= (x9 x124 x154) x154)))) (= (x9 x112 x112) x124))) (= (x9 x112 x154) x52)) (= (x9 x112 x52) x112)) (= (x9 x87 x124) x112)) (= x154 (x9 x87 x112))))) (= x87 (x9 x87 x52))))) (= (x9 x154 x87) x124)))))))))))
(assert (let ((x50 (= (x9 x52 x52) x52)) (x83 (= (x9 x154 x154) x154)) (x14 (= x112 (x9 x112 x112))) (x150 (= (x9 x87 x87) x87)) (x95 (= x124 (x9 x124 x124)))) (let ((x16 (not x95)) (x133 (not x14)) (x88 (not x83)) (x111 (not x150)) (x35 (not x50))) (or (or (or (and (= x154 (x9 x154 x52)) x35) (or (or (and (= (x9 x154 x87) x154) x111) (or (and (= (x9 x154 x112) x154) x133) (and (= (x9 x154 x124) x154) x16))) (and x88 x83))) (or (or (or (or (and x88 (= x124 (x9 x124 x154))) (or (and x111 (= (x9 x124 x87) x124)) (or (and x95 x16) (and x133 (= x124 (x9 x124 x112)))))) (and x35 (= (x9 x124 x52) x124))) (or (or (or (and (= x112 (x9 x112 x87)) x111) (or (and x133 x14) (and x16 (= x112 (x9 x112 x124))))) (and (= (x9 x112 x154) x112) x88)) (and x35 (= x112 (x9 x112 x52))))) (or (or (and x88 (= (x9 x87 x154) x87)) (or (and x150 x111) (or (and x133 (= (x9 x87 x112) x87)) (and x16 (= x87 (x9 x87 x124)))))) (and (= x87 (x9 x87 x52)) x35)))) (or (or (and (= (x9 x52 x154) x52) x88) (or (and x111 (= (x9 x52 x87) x52)) (or (and x16 (= (x9 x52 x124) x52)) (and (= x52 (x9 x52 x112)) x133)))) (and x50 x35))))))
(assert (and (not (= x52 x154)) (and (not (= x87 x52)) (and (and (and (not (= x154 x112)) (and (not (= x112 x87)) (and (not (= x52 x124)) (and (not (= x154 x124)) (and (not (= x124 x87)) (not (= x112 x124))))))) (not (= x52 x112))) (not (= x154 x87))))))
(assert (or (or (or (or (and (and (and (not (= x87 (x9 x124 (x9 x124 x87)))) (and (not (= (x9 x124 (x9 x124 x124)) x124)) (not (= (x9 x124 (x9 x124 x112)) x112)))) (not (= (x9 x124 (x9 x124 x154)) x154))) (not (= x52 (x9 x124 (x9 x124 x52))))) (and (and (not (= x154 (x9 x112 (x9 x112 x154)))) (and (and (not (= x124 (x9 x112 (x9 x112 x124)))) (not (= (x9 x112 (x9 x112 x112)) x112))) (not (= (x9 x112 (x9 x112 x87)) x87)))) (not (= x52 (x9 x112 (x9 x112 x52)))))) (and (and (and (not (= (x9 x87 (x9 x87 x87)) x87)) (and (not (= x112 (x9 x87 (x9 x87 x112)))) (not (= x124 (x9 x87 (x9 x87 x124)))))) (not (= x154 (x9 x87 (x9 x87 x154))))) (not (= x52 (x9 x87 (x9 x87 x52)))))) (and (and (not (= (x9 x154 (x9 x154 x154)) x154)) (and (and (not (= x112 (x9 x154 (x9 x154 x112)))) (not (= (x9 x154 (x9 x154 x124)) x124))) (not (= x87 (x9 x154 (x9 x154 x87)))))) (not (= x52 (x9 x154 (x9 x154 x52)))))) (and (and (and (not (= (x9 x52 (x9 x52 x87)) x87)) (and (not (= (x9 x52 (x9 x52 x124)) x124)) (not (= (x9 x52 (x9 x52 x112)) x112)))) (not (= x154 (x9 x52 (x9 x52 x154))))) (not (= (x9 x52 (x9 x52 x52)) x52)))))
(assert (or (or (or (and (not (= x87 (x9 x52 (x9 x87 x52)))) (and (not (= x87 (x9 x154 (x9 x87 x154)))) (and (and (not (= x87 (x9 x112 (x9 x87 x112)))) (not (= x87 (x9 x124 (x9 x87 x124))))) (not (= x87 (x9 x87 (x9 x87 x87))))))) (or (and (and (and (not (= (x9 x87 (x9 x112 x87)) x112)) (and (not (= x112 (x9 x112 (x9 x112 x112)))) (not (= x112 (x9 x124 (x9 x112 x124)))))) (not (= (x9 x154 (x9 x112 x154)) x112))) (not (= (x9 x52 (x9 x112 x52)) x112))) (and (and (and (and (not (= x124 (x9 x112 (x9 x124 x112)))) (not (= x124 (x9 x124 (x9 x124 x124))))) (not (= x124 (x9 x87 (x9 x124 x87))))) (not (= x124 (x9 x154 (x9 x124 x154))))) (not (= x124 (x9 x52 (x9 x124 x52))))))) (and (not (= (x9 x52 (x9 x154 x52)) x154)) (and (not (= x154 (x9 x154 (x9 x154 x154)))) (and (and (not (= (x9 x112 (x9 x154 x112)) x154)) (not (= x154 (x9 x124 (x9 x154 x124))))) (not (= (x9 x87 (x9 x154 x87)) x154)))))) (and (and (and (not (= (x9 x87 (x9 x52 x87)) x52)) (and (not (= x52 (x9 x112 (x9 x52 x112)))) (not (= (x9 x124 (x9 x52 x124)) x52)))) (not (= (x9 x154 (x9 x52 x154)) x52))) (not (= (x9 x52 (x9 x52 x52)) x52)))))
(assert (let ((x130 (x9 x112 x52)) (x29 (x9 x52 x112)) (x10 (x9 x52 x154)) (x122 (x9 x52 x52)) (x111 (x9 x124 x154)) (x88 (x9 x124 x52)) (x13 (x9 x87 x87)) (x83 (x9 x87 x124)) (x14 (x9 x124 x112)) (x151 (x9 x112 x87)) (x16 (x9 x124 x124)) (x97 (x9 x112 x154)) (x133 (x9 x124 x87)) (x50 (x9 x154 x124)) (x86 (x9 x154 x154)) (x42 (x9 x154 x52)) (x46 (x9 x154 x87)) (x127 (x9 x52 x87)) (x146 (x9 x87 x52)) (x150 (x9 x112 x124)) (x85 (x9 x52 x124)) (x82 (x9 x154 x112)) (x79 (x9 x112 x112)) (x53 (x9 x87 x154)) (x34 (x9 x87 x112))) (let ((x12 (= x154 x79)) (x45 (= x52 x53)) (x138 (= x154 x13)) (x30 (= x52 x14)) (x123 (= x14 x124)) (x89 (= x85 x52)) (x55 (= x130 x87)) (x15 (= x124 x151)) (x110 (= x83 x87)) (x61 (= x82 x124)) (x74 (= x130 x154)) (x68 (= x112 x122)) (x142 (= x124 x42)) (x143 (= x146 x87)) (x132 (= x50 x112)) (x136 (= x154 x151)) (x58 (= x154 x53)) (x117 (= x154 x127)) (x126 (= x52 x86)) (x149 (= x87 x42)) (x157 (= x112 x86)) (x56 (= x112 x13)) (x155 (= x52 x97)) (x19 (= x154 x146)) (x118 (= x151 x112)) (x80 (= x53 x112)) (x65 (= x112 x10)) (x78 (= x112 x130)) (x99 (= x97 x87)) (x54 (= x79 x112)) (x135 (= x111 x124)) (x153 (= x146 x124)) (x73 (= x87 x79)) (x1 (= x97 x154)) (x48 (= x82 x154)) (x121 (= x88 x154)) (x40 (= x34 x52)) (x84 (= x124 x46)) (x51 (= x133 x124)) (x104 (= x112 x127)) (x81 (= x53 x124)) (x159 (= x42 x112)) (x95 (= x124 x16)) (x11 (= x29 x112)) (x66 (= x42 x52)) (x113 (= x88 x112)) (x2 (= x124 x122)) (x100 (= x124 x83)) (x72 (= x154 x34)) (x23 (= x29 x52)) (x37 (= x151 x52)) (x115 (= x112 x146)) (x125 (= x87 x133)) (x94 (= x13 x52)) (x158 (= x87 x46)) (x141 (= x86 x87)) (x43 (= x154 x86)) (x76 (= x150 x124)) (x22 (= x154 x111)) (x6 (= x53 x87)) (x59 (= x79 x124)) (x129 (= x127 x124)) (x108 (= x151 x87)) (x107 (= x85 x112)) (x114 (= x34 x124)) (x3 (= x14 x87)) (x7 (= x124 x86)) (x64 (= x82 x87)) (x156 (= x16 x87)) (x70 (= x130 x52)) (x44 (= x133 x52)) (x62 (= x154 x122)) (x144 (= x154 x16)) (x20 (= x111 x87)) (x25 (= x124 x85)) (x31 (= x50 x154)) (x101 (= x87 x29)) (x49 (= x10 x124)) (x105 (= x112 x14)) (x120 (= x124 x97)) (x134 (= x82 x112)) (x4 (= x154 x46)) (x28 (= x87 x150)) (x147 (= x87 x50)) (x17 (= x29 x154)) (x67 (= x46 x52)) (x116 (= x52 x16)) (x60 (= x124 x29)) (x71 (= x52 x50)) (x139 (= x10 x87)) (x103 (= x52 x146)) (x33 (= x154 x85)) (x39 (= x112 x34)) (x21 (= x87 x88)) (x152 (= x83 x112)) (x57 (= x13 x124)) (x41 (= x88 x52)) (x106 (= x133 x112)) (x18 (= x83 x154)) (x35 (= x112 x16)) (x5 (= x130 x124)) (x47 (= x133 x154)) (x109 (= x52 x150)) (x90 (= x124 x88)) (x8 (= x13 x87)) (x24 (= x52 x82)) (x36 (= x112 x46)) (x91 (= x111 x112)) (x102 (= x10 x154)) (x137 (= x52 x122)) (x98 (= x52 x10)) (x93 (= x122 x87)) (x140 (= x154 x150)) (x148 (= x87 x85)) (x75 (= x87 x127)) (x131 (= x154 x42)) (x69 (= x112 x150)) (x38 (= x34 x87)) (x26 (= x79 x52)) (x96 (= x52 x127)) (x119 (= x83 x52)) (x77 (= x124 x50)) (x63 (= x111 x52)) (x92 (= x97 x112)) (x32 (= x14 x154))) (and (and (and (and (and (and (and (or (or (or x18 (or x140 x144)) x31) x33) (or (or (or x47 (or x32 x144)) x22) x121)) (and (and (or (or x20 (or (or x3 x156) x125)) x21) (or (or x147 (or (or x156 x28) x110)) x148)) (and (and (or x113 (or x91 (or (or x35 x105) x106))) (or (or (or (or x35 x69) x152) x132) x107)) (and (or (or x77 (or x100 (or x76 x95))) x25) (or (or x135 (or (or x123 x95) x51)) x90))))) (and (or (or (or x44 (or x116 x30)) x63) x41) (or (or x71 (or (or x109 x116) x119)) x89))) (and (and (or (or x155 (or x37 (or x26 x109))) x70) (or (or (or (or x30 x26) x40) x24) x23)) (and (and (and (or (or x64 (or (or x73 x3) x38)) x101) (or (or (or (or x73 x28) x108) x99) x55)) (and (and (or (or (or x114 (or x123 x59)) x61) x60) (or (or (or x15 (or x76 x59)) x120) x5)) (and (or x78 (or x92 (or x118 (or x54 x69)))) (or x11 (or (or x39 (or x54 x105)) x134))))) (and (or x74 (or x1 (or (or x140 x12) x136))) (or x17 (or (or (or x12 x32) x72) x48)))))) (and (and (or (or (or x94 (or x37 x44)) x67) x96) (or (or x45 (or (or x40 x119) x94)) x103)) (and (and (and (and (or (or x36 (or (or x106 x118) x56)) x104) (or (or (or x56 (or x152 x39)) x80) x115)) (and (or x129 (or (or (or x51 x15) x57) x84)) (or (or (or (or x114 x100) x57) x81) x153))) (and (or x143 (or (or (or x38 x110) x8) x6)) (or (or x158 (or (or x125 x108) x8)) x75))) (and (or (or (or (or x47 x136) x138) x4) x117) (or (or (or x138 (or x18 x72)) x58) x19))))) (and (and (or (or (or x67 (or x24 x71)) x126) x66) (or x98 (or x126 (or (or x63 x155) x45)))) (and (and (and (or x149 (or x141 (or x158 (or x64 x147)))) (or (or (or x6 (or x20 x99)) x141) x139)) (and (and (or x159 (or x157 (or (or x132 x134) x36))) (or (or x157 (or x80 (or x92 x91))) x65)) (and (or x142 (or x7 (or x84 (or x77 x61)))) (or x49 (or (or x81 (or x135 x120)) x7))))) (and (or (or (or x4 (or x48 x31)) x43) x131) (or x102 (or x43 (or x58 (or x22 x1)))))))) (and (and (or x137 (or (or (or x70 x41) x103) x66)) (or x137 (or x98 (or (or x89 x23) x96)))) (and (and (or (or (or (or x33 x17) x117) x102) x62) (or x62 (or x131 (or (or x121 x74) x19)))) (and (and (or x93 (or (or (or x55 x21) x143) x149)) (or (or (or (or x101 x148) x75) x139) x93)) (and (and (or x2 (or (or (or x90 x5) x153) x142)) (or x2 (or (or x129 (or x60 x25)) x49))) (and (or (or (or (or x78 x113) x115) x159) x68) (or (or x65 (or x104 (or x107 x11))) x68))))))))))
(assert (let ((x133 (x9 x154 x154)) (x111 (x9 x52 x52)) (x14 (x9 x87 x87)) (x16 (x9 x112 x112)) (x95 (x9 x124 x124))) (or (and (not (= x52 x111)) (and (not (= x133 x52)) (and (and (not (= x95 x52)) (not (= x52 x16))) (not (= x52 x14))))) (or (or (and (not (= x87 x111)) (and (and (and (not (= x87 x95)) (not (= x16 x87))) (not (= x87 x14))) (not (= x87 x133)))) (or (and (not (= x111 x112)) (and (and (not (= x14 x112)) (and (not (= x16 x112)) (not (= x112 x95)))) (not (= x133 x112)))) (and (and (and (not (= x124 x14)) (and (not (= x124 x95)) (not (= x16 x124)))) (not (= x133 x124))) (not (= x124 x111))))) (and (not (= x154 x111)) (and (not (= x133 x154)) (and (not (= x154 x14)) (and (not (= x95 x154)) (not (= x154 x16))))))))))
(assert (let ((x30 (x9 x52 x124)) (x3 (x9 x112 x124)) (x108 (x9 x52 x87)) (x125 (x9 x87 x52)) (x46 (x9 x87 x87)) (x32 (x9 x124 x154)) (x57 (x9 x87 x112)) (x82 (x9 x124 x124)) (x73 (x9 x124 x87)) (x152 (x9 x112 x154)) (x119 (x9 x154 x154)) (x13 (x9 x112 x52)) (x140 (x9 x87 x124)) (x15 (x9 x112 x87)) (x109 (x9 x124 x52)) (x28 (x9 x124 x112)) (x12 (x9 x154 x124)) (x37 (x9 x52 x154)) (x110 (x9 x87 x154)) (x39 (x9 x154 x112)) (x114 (x9 x112 x112)) (x53 (x9 x52 x112)) (x44 (x9 x154 x52)) (x38 (x9 x154 x87)) (x132 (x9 x52 x52))) (let ((x91 (= x114 x87)) (x75 (= x82 x52)) (x79 (= x53 x124)) (x157 (= x87 x57)) (x19 (= x38 x52)) (x121 (= x39 x52)) (x21 (= x28 x52)) (x89 (= x52 x30)) (x4 (= x87 x109)) (x80 (= x73 x87)) (x42 (= x28 x87)) (x134 (= x112 x132)) (x127 (= x46 x112)) (x51 (= x114 x112)) (x31 (= x119 x87)) (x90 (= x154 x46)) (x35 (= x57 x124)) (x33 (= x15 x52)) (x5 (= x12 x154)) (x149 (= x52 x73)) (x98 (= x13 x52)) (x72 (= x112 x39)) (x159 (= x154 x125)) (x20 (= x39 x87)) (x137 (= x52 x132)) (x11 (= x154 x110)) (x62 (= x119 x52)) (x83 (= x124 x46)) (x22 (= x53 x87)) (x96 (= x53 x52)) (x68 (= x37 x154)) (x48 (= x87 x30)) (x50 (= x12 x124)) (x86 (= x3 x87)) (x94 (= x112 x30)) (x138 (= x110 x112)) (x78 (= x154 x13)) (x105 (= x37 x124)) (x65 (= x154 x30)) (x58 (= x108 x87)) (x139 (= x52 x3)) (x17 (= x52 x46)) (x6 (= x87 x38)) (x67 (= x87 x132)) (x117 (= x12 x52)) (x16 (= x3 x124)) (x18 (= x112 x32)) (x66 (= x44 x52)) (x23 (= x109 x52)) (x47 (= x152 x112)) (x147 (= x87 x46)) (x10 (= x15 x87)) (x146 (= x112 x140)) (x153 (= x32 x154)) (x120 (= x112 x125)) (x69 (= x109 x124)) (x136 (= x112 x38)) (x24 (= x87 x44)) (x60 (= x154 x73)) (x36 (= x87 x82)) (x1 (= x87 x13)) (x118 (= x112 x57)) (x2 (= x152 x154)) (x111 (= x124 x140)) (x88 (= x124 x73)) (x156 (= x39 x124)) (x49 (= x154 x15)) (x103 (= x37 x52)) (x59 (= x124 x30)) (x104 (= x154 x119)) (x7 (= x44 x112)) (x41 (= x52 x108)) (x102 (= x32 x52)) (x144 (= x152 x124)) (x77 (= x112 x109)) (x99 (= x152 x87)) (x106 (= x73 x112)) (x115 (= x154 x108)) (x141 (= x110 x87)) (x135 (= x108 x112)) (x14 (= x28 x124)) (x56 (= x15 x112)) (x130 (= x124 x125)) (x151 (= x13 x124)) (x84 (= x112 x13)) (x133 (= x114 x124)) (x43 (= x125 x87)) (x34 (= x124 x132)) (x95 (= x82 x124)) (x143 (= x140 x52)) (x45 (= x154 x28)) (x126 (= x114 x154)) (x122 (= x154 x109)) (x148 (= x44 x154)) (x155 (= x154 x3)) (x150 (= x124 x15)) (x26 (= x112 x3)) (x81 (= x37 x112)) (x74 (= x52 x152)) (x92 (= x140 x87)) (x29 (= x82 x112)) (x55 (= x52 x114)) (x54 (= x124 x44)) (x70 (= x52 x125)) (x76 (= x124 x110)) (x40 (= x119 x112)) (x97 (= x124 x108)) (x107 (= x154 x38)) (x100 (= x112 x28)) (x64 (= x12 x87)) (x131 (= x52 x110)) (x101 (= x154 x132)) (x63 (= x82 x154)) (x129 (= x154 x57)) (x93 (= x57 x52)) (x85 (= x32 x124)) (x123 (= x124 x119)) (x158 (= x87 x32)) (x116 (= x38 x124)) (x61 (= x112 x53)) (x25 (= x140 x154)) (x8 (= x112 x12)) (x71 (= x87 x37)) (x142 (= x39 x154)) (x113 (= x53 x154))) (and (and (or (or (and x101 x101) (or (or (or (and x113 x78) (and x65 x122)) (and x115 x159)) (and x68 x148))) (or (or (or (or (or (or (and x49 x129) (or (and x45 x155) (and x126 x126))) (and x142 x2)) (and x78 x113)) (or (or (or (or (and x63 x63) (and x155 x45)) (and x60 x25)) (and x5 x153)) (and x65 x122))) (or (or (or (and x90 x90) (or (and x60 x25) (and x49 x129))) (and x11 x107)) (and x115 x159))) (or (and x68 x148) (or (and x104 x104) (or (or (and x2 x142) (and x5 x153)) (and x107 x11)))))) (and (and (or (or (or (or (or (or (and x8 x18) (and x72 x47)) (and x136 x138)) (and x40 x40)) (and x81 x7)) (or (or (or (or (or (and x56 x118) (or (and x51 x51) (and x100 x26))) (and x72 x47)) (and x84 x61)) (or (or (or (or (and x26 x100) (and x29 x29)) (and x146 x106)) (and x18 x8)) (and x94 x77))) (or (or (and x136 x138) (or (or (and x146 x106) (and x56 x118)) (and x127 x127))) (and x120 x135)))) (or (and x134 x134) (or (and x81 x7) (or (or (and x61 x84) (and x94 x77)) (and x120 x135))))) (or (or (and x34 x34) (or (and x105 x54) (or (or (and x69 x59) (and x151 x79)) (and x130 x97)))) (or (or (and x105 x54) (or (and x123 x123) (or (and x116 x76) (or (and x156 x144) (and x85 x50))))) (or (or (or (and x69 x59) (or (or (and x88 x111) (or (and x16 x14) (and x95 x95))) (and x50 x85))) (or (and x151 x79) (or (and x144 x156) (or (or (and x16 x14) (and x133 x133)) (and x35 x150))))) (or (or (or (and x83 x83) (or (and x88 x111) (and x35 x150))) (and x76 x116)) (and x130 x97)))))) (or (or (or (and x71 x24) (or (and x31 x31) (or (or (and x20 x99) (and x158 x64)) (and x6 x141)))) (or (or (or (or (or (or (and x42 x86) (and x36 x36)) (and x80 x92)) (and x158 x64)) (and x48 x4)) (or (and x1 x22) (or (and x99 x20) (or (and x10 x157) (or (and x91 x91) (and x42 x86)))))) (or (and x43 x58) (or (or (or (and x10 x157) (and x92 x80)) (and x147 x147)) (and x141 x6))))) (or (and x67 x67) (or (or (or (and x4 x48) (and x22 x1)) (and x43 x58)) (and x71 x24)))))) (or (or (or (or (or (or (or (or (and x139 x21) (and x55 x55)) (and x93 x33)) (and x74 x121)) (and x96 x98)) (or (and x23 x89) (or (and x117 x102) (or (or (and x139 x21) (and x75 x75)) (and x149 x143))))) (or (and x41 x70) (or (and x131 x19) (or (or (and x149 x143) (and x93 x33)) (and x17 x17))))) (or (or (or (and x131 x19) (or (and x102 x117) (and x121 x74))) (and x62 x62)) (and x103 x66))) (or (and x137 x137) (or (and x103 x66) (or (or (and x89 x23) (and x98 x96)) (and x70 x41)))))))))
(assert (let ((x50 (x9 x52 x112)) (x69 (x9 x87 x154)) (x54 (x9 x154 x52)) (x144 (x9 x87 x87)) (x14 (x9 x87 x124)) (x150 (x9 x87 x112)) (x130 (x9 x112 x52)) (x88 (x9 x124 x112)) (x95 (x9 x124 x124)) (x35 (x9 x112 x112)) (x83 (x9 x154 x112)) (x16 (x9 x112 x124)) (x111 (x9 x52 x124)) (x156 (x9 x112 x87)) (x116 (x9 x154 x87)) (x105 (x9 x87 x52)) (x34 (x9 x52 x52)) (x97 (x9 x124 x52)) (x151 (x9 x52 x154)) (x123 (x9 x124 x154)) (x133 (x9 x154 x124)) (x79 (x9 x154 x154)) (x76 (x9 x52 x87)) (x85 (x9 x124 x87)) (x59 (x9 x112 x154))) (and (and (and (and (not (= x151 x79)) (and (and (not (= x79 x69)) (and (not (= x151 x59)) (and (not (= x59 x79)) (and (not (= x59 x69)) (and (and (and (not (= x69 x123)) (not (= x59 x123))) (not (= x123 x79))) (not (= x123 x151))))))) (not (= x69 x151)))) (and (and (and (not (= x111 x133)) (and (and (not (= x133 x14)) (and (not (= x16 x111)) (and (not (= x133 x16)) (and (not (= x16 x14)) (and (and (and (not (= x14 x95)) (not (= x95 x16))) (not (= x95 x133))) (not (= x95 x111))))))) (not (= x111 x14)))) (and (and (and (not (= x150 x83)) (and (and (not (= x35 x83)) (and (and (not (= x88 x50)) (and (and (not (= x88 x35)) (not (= x150 x88))) (not (= x83 x88)))) (not (= x35 x150)))) (not (= x35 x50)))) (not (= x150 x50))) (not (= x83 x50)))) (and (not (= x76 x116)) (and (not (= x144 x76)) (and (and (and (not (= x156 x116)) (and (and (not (= x76 x85)) (and (not (= x116 x85)) (and (not (= x85 x156)) (not (= x144 x85))))) (not (= x144 x156)))) (not (= x76 x156))) (not (= x144 x116))))))) (and (not (= x54 x34)) (and (and (not (= x54 x105)) (and (and (not (= x54 x130)) (and (and (and (not (= x97 x54)) (and (not (= x130 x97)) (not (= x105 x97)))) (not (= x34 x97))) (not (= x130 x105)))) (not (= x130 x34)))) (not (= x34 x105))))) (and (and (and (and (not (= x116 x54)) (and (not (= x116 x79)) (and (not (= x54 x83)) (and (not (= x79 x83)) (and (and (not (= x133 x54)) (and (and (not (= x133 x83)) (not (= x116 x133))) (not (= x133 x79)))) (not (= x83 x116))))))) (not (= x79 x54))) (and (and (not (= x105 x69)) (and (not (= x105 x144)) (and (and (and (and (not (= x150 x144)) (and (not (= x105 x14)) (and (and (not (= x150 x14)) (not (= x144 x14))) (not (= x69 x14))))) (not (= x69 x150))) (not (= x150 x105))) (not (= x144 x69))))) (and (and (and (not (= x85 x97)) (and (and (and (and (not (= x88 x85)) (and (and (not (= x95 x123)) (and (not (= x95 x85)) (not (= x88 x95)))) (not (= x95 x97)))) (not (= x123 x88))) (not (= x88 x97))) (not (= x85 x123)))) (not (= x97 x123))) (and (and (and (not (= x156 x59)) (and (and (not (= x35 x59)) (and (and (and (and (not (= x16 x156)) (not (= x16 x35))) (not (= x16 x59))) (not (= x16 x130))) (not (= x156 x35)))) (not (= x35 x130)))) (not (= x130 x156))) (not (= x130 x59)))))) (and (and (not (= x76 x34)) (and (and (and (not (= x151 x50)) (and (and (and (not (= x111 x151)) (and (not (= x76 x111)) (not (= x50 x111)))) (not (= x34 x111))) (not (= x50 x76)))) (not (= x50 x34))) (not (= x76 x151)))) (not (= x34 x151)))))))
(assert (or (or (or (and (and (= (x9 x87 (x9 x87 x154)) x154) (and (and (= (x9 x87 (x9 x87 x112)) x112) (= x124 (x9 x87 (x9 x87 x124)))) (= (x9 x87 (x9 x87 x87)) x87))) (= x52 (x9 x87 (x9 x87 x52)))) (or (and (and (and (= x87 (x9 x124 (x9 x124 x87))) (and (= x124 (x9 x124 (x9 x124 x124))) (= (x9 x124 (x9 x124 x112)) x112))) (= x154 (x9 x124 (x9 x124 x154)))) (= (x9 x124 (x9 x124 x52)) x52)) (and (and (= x154 (x9 x112 (x9 x112 x154))) (and (and (= (x9 x112 (x9 x112 x124)) x124) (= (x9 x112 (x9 x112 x112)) x112)) (= (x9 x112 (x9 x112 x87)) x87))) (= (x9 x112 (x9 x112 x52)) x52)))) (and (= x52 (x9 x154 (x9 x154 x52))) (and (and (= (x9 x154 (x9 x154 x87)) x87) (and (= (x9 x154 (x9 x154 x124)) x124) (= x112 (x9 x154 (x9 x154 x112))))) (= (x9 x154 (x9 x154 x154)) x154)))) (and (= x52 (x9 x52 (x9 x52 x52))) (and (and (= x87 (x9 x52 (x9 x52 x87))) (and (= x112 (x9 x52 (x9 x52 x112))) (= (x9 x52 (x9 x52 x124)) x124))) (= (x9 x52 (x9 x52 x154)) x154)))))
(assert (and (and (or (or (or (= x87 (x9 (x9 x87 x154) x154)) (or (= (x9 (x9 x124 x154) x154) x124) (= x112 (x9 (x9 x112 x154) x154)))) (= (x9 (x9 x154 x154) x154) x154)) (= x52 (x9 (x9 x52 x154) x154))) (and (or (or (or (= (x9 (x9 x87 x87) x87) x87) (or (= (x9 (x9 x124 x87) x87) x124) (= x112 (x9 (x9 x112 x87) x87)))) (= (x9 (x9 x154 x87) x87) x154)) (= x52 (x9 (x9 x52 x87) x87))) (and (or (or (= (x9 (x9 x154 x124) x124) x154) (or (or (= (x9 (x9 x124 x124) x124) x124) (= (x9 (x9 x112 x124) x124) x112)) (= (x9 (x9 x87 x124) x124) x87))) (= x52 (x9 (x9 x52 x124) x124))) (or (or (or (or (= x124 (x9 (x9 x124 x112) x112)) (= (x9 (x9 x112 x112) x112) x112)) (= (x9 (x9 x87 x112) x112) x87)) (= x154 (x9 (x9 x154 x112) x112))) (= (x9 (x9 x52 x112) x112) x52))))) (or (or (= (x9 (x9 x154 x52) x52) x154) (or (or (= x112 (x9 (x9 x112 x52) x52)) (= (x9 (x9 x124 x52) x52) x124)) (= (x9 (x9 x87 x52) x52) x87))) (= x52 (x9 (x9 x52 x52) x52)))))
(assert (let ((x79 (x9 x154 x154)) (x29 (x9 x52 x112)) (x12 (x9 x154 x52)) (x88 (x9 x112 x112)) (x50 (x9 x124 x87)) (x144 (x9 x112 x87)) (x140 (x9 x87 x52)) (x82 (x9 x124 x52)) (x151 (x9 x112 x154)) (x83 (x9 x87 x124)) (x73 (x9 x52 x87)) (x69 (x9 x154 x112)) (x59 (x9 x124 x154)) (x111 (x9 x124 x112)) (x85 (x9 x87 x112)) (x32 (x9 x52 x154)) (x28 (x9 x52 x52)) (x123 (x9 x154 x124)) (x97 (x9 x154 x87)) (x133 (x9 x112 x124)) (x3 (x9 x112 x52)) (x34 (x9 x52 x124)) (x14 (x9 x124 x124)) (x156 (x9 x87 x87)) (x130 (x9 x87 x154))) (let ((x105 (= x79 x154)) (x95 (= x14 x124)) (x109 (= x52 x28)) (x116 (= x156 x87)) (x35 (= x88 x112))) (let ((x76 (not x116)) (x30 (not x109)) (x150 (not x35)) (x54 (not x105)) (x16 (not x95))) (and (and (and (and (and (and (and (or (or (not (= x83 x124)) (= x87 x14)) (not (= x124 x50))) (and (or (or (= x112 x14) (not (= x124 x133))) (not (= x111 x124))) (or (or x16 x95) x16))) (or (not (= x124 x59)) (or (= x154 x14) (not (= x123 x124))))) (or (or (= x52 x14) (not (= x34 x124))) (not (= x124 x82)))) (and (or (not (= x3 x112)) (or (= x88 x52) (not (= x112 x29)))) (and (and (or (or (not (= x112 x85)) (= x87 x88)) (not (= x112 x144))) (and (or (or x150 x35) x150) (or (not (= x112 x133)) (or (= x88 x124) (not (= x111 x112)))))) (or (not (= x151 x112)) (or (not (= x69 x112)) (= x88 x154)))))) (and (or (not (= x140 x87)) (or (= x156 x52) (not (= x87 x73)))) (and (or (not (= x87 x130)) (or (= x154 x156) (not (= x87 x97)))) (and (and (or (not (= x87 x83)) (or (= x124 x156) (not (= x50 x87)))) (or (not (= x87 x85)) (or (= x112 x156) (not (= x87 x144))))) (or (or x116 x76) x76))))) (and (or (not (= x154 x12)) (or (= x79 x52) (not (= x154 x32)))) (and (and (and (or (or (= x79 x112) (not (= x151 x154))) (not (= x69 x154))) (or (not (= x154 x123)) (or (not (= x154 x59)) (= x79 x124)))) (or (or (= x87 x79) (not (= x154 x130))) (not (= x97 x154)))) (or x54 (or x54 x105))))) (and (and (and (and (or (not (= x52 x29)) (or (= x28 x112) (not (= x52 x3)))) (or (or (= x28 x124) (not (= x82 x52))) (not (= x34 x52)))) (or (or (= x28 x87) (not (= x52 x140))) (not (= x52 x73)))) (or (not (= x52 x32)) (or (= x28 x154) (not (= x12 x52))))) (or x30 (or x109 x30))))))))
(assert (let ((x146 (x9 x87 x154)) (x13 (x9 x87 x112)) (x44 (x9 x52 x154)) (x59 (not (= (x9 x112 x112) x112))) (x16 (x9 x124 x112)) (x150 (x9 x124 x52)) (x12 (not (= x154 (x9 x154 x154)))) (x130 (x9 x112 x87)) (x34 (not (= (x9 x87 x87) x87))) (x57 (not (= x52 (x9 x52 x52)))) (x136 (x9 x52 x112)) (x26 (x9 x112 x52)) (x3 (x9 x112 x154)) (x133 (x9 x124 x87)) (x118 (x9 x87 x52)) (x119 (x9 x52 x87)) (x46 (x9 x154 x124)) (x72 (x9 x52 x124)) (x152 (x9 x87 x124)) (x95 (not (= x124 (x9 x124 x124)))) (x125 (x9 x154 x87)) (x88 (x9 x124 x154)) (x50 (x9 x112 x124)) (x8 (x9 x154 x52)) (x110 (x9 x154 x112))) (let ((x30 (not (= x72 x124))) (x105 (not (= x13 x112))) (x38 (not (= x110 x154))) (x151 (not (= x52 x26))) (x53 (not (= x87 x13))) (x51 (not (= x87 x119))) (x111 (not (= x124 x133))) (x116 (not (= x154 x88))) (x39 (not (= x152 x87))) (x140 (not (= x112 x3))) (x138 (not (= x136 x52))) (x106 (not (= x146 x87))) (x109 (not (= x8 x52))) (x127 (not (= x46 x154))) (x29 (not (= x52 x118))) (x83 (not (= x150 x124))) (x15 (not (= x44 x154))) (x14 (not (= x124 x16))) (x54 (not (= x112 x130))) (x35 (not (= x88 x124))) (x73 (not (= x110 x112))) (x56 (not (= x87 x118))) (x97 (not (= x124 x152))) (x82 (not (= x146 x154))) (x37 (not (= x52 x44))) (x40 (not (= x52 x119))) (x76 (not (= x150 x52))) (x47 (not (= x72 x52))) (x108 (not (= x154 x125))) (x18 (not (= x154 x8))) (x100 (not (= x112 x136))) (x123 (not (= x124 x50))) (x144 (not (= x87 x133))) (x85 (not (= x112 x16))) (x79 (not (= x3 x154))) (x28 (not (= x46 x124))) (x32 (not (= x87 x125))) (x156 (not (= x50 x112))) (x114 (not (= x26 x112))) (x69 (not (= x87 x130)))) (or (and (and (and (and (and (or x32 x37) (and (or x37 x28) (or x73 x37))) (or x12 x37)) (or x37 x109)) (and (and (and (or x47 x76) (and (and (and (or x47 x95) (or x47 x85)) (or x144 x47)) (or x116 x47))) (and (and (and (and (or x138 x59) (or x123 x138)) (or x69 x138)) (or x79 x138)) (or x138 x151))) (and (and (or x40 x82) (and (and (or x40 x97) (or x105 x40)) (or x34 x40))) (or x40 x29)))) (and (or x57 x57) (and (or x57 x15) (and (and (or x57 x30) (or x100 x57)) (or x51 x57))))) (or (or (or (and (and (and (or x109 x140) (and (or x140 x12) (and (or x32 x140) (and (or x73 x140) (or x140 x28))))) (and (and (and (or x76 x156) (and (and (or x156 x144) (and (or x85 x156) (or x156 x95))) (or x156 x116))) (and (or x151 x59) (and (or x79 x59) (and (or x59 x69) (and (or x59 x59) (or x123 x59)))))) (and (and (or x82 x54) (and (or x54 x34) (and (or x97 x54) (or x105 x54)))) (or x54 x29)))) (and (and (and (or x114 x51) (and (or x114 x100) (or x30 x114))) (or x114 x15)) (or x114 x57))) (and (and (and (or x83 x15) (and (or x83 x51) (and (or x100 x83) (or x83 x30)))) (or x83 x57)) (and (and (and (and (and (and (or x111 x105) (or x97 x111)) (or x111 x34)) (or x82 x111)) (or x111 x29)) (and (and (or x151 x14) (and (or x79 x14) (and (or x14 x69) (and (or x14 x59) (or x14 x123))))) (and (or x95 x76) (and (and (or x144 x95) (and (or x85 x95) (or x95 x95))) (or x95 x116))))) (and (and (and (and (or x35 x73) (or x28 x35)) (or x32 x35)) (or x12 x35)) (or x109 x35))))) (and (and (and (and (and (or x39 x76) (and (or x116 x39) (and (or x39 x144) (and (or x39 x95) (or x85 x39))))) (and (and (or x79 x53) (and (and (or x123 x53) (or x53 x59)) (or x53 x69))) (or x53 x151))) (and (or x29 x34) (and (and (or x34 x34) (and (or x34 x97) (or x34 x105))) (or x34 x82)))) (and (or x106 x109) (and (or x106 x12) (and (and (or x106 x28) (or x106 x73)) (or x32 x106))))) (and (or x56 x57) (and (and (and (or x30 x56) (or x56 x100)) (or x56 x51)) (or x15 x56))))) (and (and (or x57 x18) (and (or x15 x18) (and (or x18 x51) (and (or x100 x18) (or x30 x18))))) (and (and (and (or x108 x29) (and (and (or x34 x108) (and (or x105 x108) (or x108 x97))) (or x108 x82))) (and (and (or x151 x38) (and (and (or x69 x38) (and (or x38 x123) (or x38 x59))) (or x79 x38))) (and (or x76 x127) (and (or x116 x127) (and (and (or x95 x127) (or x85 x127)) (or x127 x144)))))) (and (and (or x12 x12) (and (and (or x12 x73) (or x12 x28)) (or x32 x12))) (or x12 x109)))))))))
(assert (or (or (and (and (and (= x87 (x9 (x9 x87 x154) x154)) (and (= (x9 (x9 x112 x154) x154) x112) (= x124 (x9 (x9 x124 x154) x154)))) (= x154 (x9 (x9 x154 x154) x154))) (= x52 (x9 (x9 x52 x154) x154))) (or (and (= (x9 (x9 x52 x87) x87) x52) (and (and (= x87 (x9 (x9 x87 x87) x87)) (and (= x124 (x9 (x9 x124 x87) x87)) (= (x9 (x9 x112 x87) x87) x112))) (= (x9 (x9 x154 x87) x87) x154))) (or (and (= x52 (x9 (x9 x52 x124) x124)) (and (and (and (= x124 (x9 (x9 x124 x124) x124)) (= (x9 (x9 x112 x124) x124) x112)) (= x87 (x9 (x9 x87 x124) x124))) (= x154 (x9 (x9 x154 x124) x124)))) (and (and (= x154 (x9 (x9 x154 x112) x112)) (and (= (x9 (x9 x87 x112) x112) x87) (and (= x124 (x9 (x9 x124 x112) x112)) (= (x9 (x9 x112 x112) x112) x112)))) (= x52 (x9 (x9 x52 x112) x112)))))) (and (and (and (and (= (x9 (x9 x112 x52) x52) x112) (= (x9 (x9 x124 x52) x52) x124)) (= (x9 (x9 x87 x52) x52) x87)) (= x154 (x9 (x9 x154 x52) x52))) (= (x9 (x9 x52 x52) x52) x52))))
(assert (or (and (not (= (x9 x52 x52) x52)) (and (and (not (= (x9 x87 x52) x87)) (and (not (= (x9 x112 x52) x112)) (not (= (x9 x124 x52) x124)))) (not (= x154 (x9 x154 x52))))) (or (and (and (and (not (= (x9 x87 x154) x87)) (and (not (= (x9 x112 x154) x112)) (not (= x124 (x9 x124 x154))))) (not (= x154 (x9 x154 x154)))) (not (= x52 (x9 x52 x154)))) (or (or (and (and (not (= x154 (x9 x154 x112))) (and (and (not (= (x9 x124 x112) x124)) (not (= x112 (x9 x112 x112)))) (not (= x87 (x9 x87 x112))))) (not (= x52 (x9 x52 x112)))) (and (and (and (and (not (= x112 (x9 x112 x124))) (not (= x124 (x9 x124 x124)))) (not (= x87 (x9 x87 x124)))) (not (= x154 (x9 x154 x124)))) (not (= (x9 x52 x124) x52)))) (and (not (= (x9 x52 x87) x52)) (and (and (not (= (x9 x87 x87) x87)) (and (not (= (x9 x124 x87) x124)) (not (= (x9 x112 x87) x112)))) (not (= (x9 x154 x87) x154))))))))
(assert (let ((x156 (x9 x87 x112)) (x69 (x9 x154 x87)) (x150 (x9 x112 x87)) (x59 (x9 x154 x112)) (x151 (x9 x154 x52)) (x111 (x9 x124 x52)) (x50 (x9 x112 x52)) (x144 (x9 x87 x87)) (x97 (x9 x52 x124)) (x85 (x9 x87 x124)) (x133 (x9 x124 x154)) (x116 (x9 x87 x154)) (x79 (x9 x154 x154)) (x130 (x9 x52 x112)) (x123 (x9 x154 x124)) (x54 (x9 x52 x154)) (x76 (x9 x87 x52)) (x95 (x9 x124 x124)) (x88 (x9 x112 x124)) (x83 (x9 x112 x154)) (x105 (x9 x52 x87)) (x14 (x9 x124 x87)) (x35 (x9 x112 x112)) (x16 (x9 x124 x112)) (x34 (x9 x52 x52))) (and (and (and (and (and (and (and (and (or (or (or (= x95 x87) (or (= x95 x112) (= x95 x124))) (= x154 x95)) (= x95 x52)) (or (= x16 x52) (or (= x154 x16) (or (= x16 x87) (or (= x16 x124) (= x112 x16)))))) (or (or (or (= x14 x87) (or (= x14 x112) (= x124 x14))) (= x154 x14)) (= x52 x14))) (or (or (or (= x87 x133) (or (= x133 x124) (= x133 x112))) (= x133 x154)) (= x133 x52))) (or (= x111 x52) (or (or (= x87 x111) (or (= x112 x111) (= x124 x111))) (= x111 x154)))) (and (or (= x50 x52) (or (= x154 x50) (or (or (= x50 x112) (= x50 x124)) (= x87 x50)))) (and (and (or (or (= x154 x150) (or (= x87 x150) (or (= x150 x112) (= x124 x150)))) (= x52 x150)) (and (or (= x52 x35) (or (= x154 x35) (or (= x87 x35) (or (= x35 x124) (= x35 x112))))) (or (= x88 x52) (or (= x88 x154) (or (= x88 x87) (or (= x88 x124) (= x112 x88))))))) (or (or (= x154 x83) (or (= x87 x83) (or (= x112 x83) (= x124 x83)))) (= x83 x52))))) (and (or (or (or (= x87 x76) (or (= x124 x76) (= x76 x112))) (= x76 x154)) (= x52 x76)) (and (or (= x116 x52) (or (= x154 x116) (or (= x116 x87) (or (= x112 x116) (= x124 x116))))) (and (or (or (= x154 x144) (or (or (= x144 x112) (= x124 x144)) (= x144 x87))) (= x144 x52)) (and (or (or (or (or (= x156 x112) (= x156 x124)) (= x87 x156)) (= x156 x154)) (= x52 x156)) (or (= x52 x85) (or (or (= x85 x87) (or (= x112 x85) (= x85 x124))) (= x154 x85)))))))) (and (and (and (and (or (or (= x154 x59) (or (= x87 x59) (or (= x59 x124) (= x112 x59)))) (= x59 x52)) (or (or (= x154 x123) (or (= x123 x87) (or (= x123 x124) (= x123 x112)))) (= x52 x123))) (or (= x69 x52) (or (= x69 x154) (or (or (= x69 x112) (= x124 x69)) (= x87 x69))))) (or (= x79 x52) (or (or (or (= x79 x112) (= x79 x124)) (= x87 x79)) (= x79 x154)))) (or (= x151 x52) (or (or (= x87 x151) (or (= x151 x124) (= x112 x151))) (= x154 x151))))) (and (and (and (or (or (or (= x87 x105) (or (= x112 x105) (= x124 x105))) (= x154 x105)) (= x52 x105)) (and (or (or (= x154 x97) (or (= x97 x87) (or (= x97 x124) (= x97 x112)))) (= x52 x97)) (or (or (= x154 x130) (or (or (= x130 x124) (= x112 x130)) (= x87 x130))) (= x52 x130)))) (or (= x54 x52) (or (= x154 x54) (or (= x54 x87) (or (= x112 x54) (= x124 x54)))))) (or (= x34 x52) (or (or (or (= x112 x34) (= x34 x124)) (= x34 x87)) (= x154 x34)))))))
(check-sat)
(exit)
